D4 LOG: Running /Users/bryant/repos/d4/d4 ./mc2022_track2_047.cnf -dDNNF -out=./mc2022_track2_047.cnnf -drat=./mc2022_track2_047.drat
D4 LOG: Time limit 1000 seconds
c [33mBenchmark Information[0m
c Number of variables: 74
c Number of clauses: 384
c Number of literals: 1920
c Preproc options: 
c
c Preproc time: 0.000149
c Integer mode 
c
c [1m[32mOption list [0m
c Caching: 1
c Reduce cache procedure level: 20
c Strategy for Reducing the cache: 0
c Cache representation: CL
c Part of the formula that is cached: NT
c Variable heuristic: VSADS
c Phase heuristic: TRUE
c Partitioning heuristic: CB + graph reduction + equivalence simplication
c
c ----------------------------------------------------------------------------------------------------------------------------------------------------------
c   #compile |       time |    #posHit |    #negHit |     #split |    Mem(MB) |     #nodes |     #edges | #equivCall | #Dec. Node | #paritioner |  limit dyn | 
c ----------------------------------------------------------------------------------------------------------------------------------------------------------
c top 5: -5 
c top 5: -5 -40 
c top 5: -5 -40 -16 
c top 5: -5 -40 -16 -60 
c unitLits 1048577 4194308 Bytes
c top 5: -5 -40 -16 -60 
c top 5: -5 -40 -16 60 
c top 5: -5 -40 -16 60 
c top 5: -5 -40 16 
c top 5: -5 -40 
c top 5: -5 -40 -52 
c top 5: -5 -40 -52 -73 
c top 5: -5 -40 -52 -73 
c top 5: -5 -40 -52 73 
c top 5: -5 -40 -52 73 
c top 5: -5 -40 52 
c top 5: -5 40 
c top 5: -5 40 -16 
c top 5: -5 40 -16 -60 
c top 5: -5 40 -16 60 
c top 5: -5 40 16 
c top 5: -5 40 
c top 5: -5 40 -52 
c top 5: -5 40 -52 -73 
c top 5: -5 40 -52 73 
c top 5: -5 40 52 
c top 5: 5 
c ----------------------------------------------------------------------------------------------------------------------------------------------------------
c
c [1m[31mStatistics [0m
c [33mCompilation Information[0m
c Number of compiled node: 463
c Number of split formula: 184
c Number of decision node: 231
c Number of node built on domain constraints: 0
c Number of decomposable AND nodes: 92
c Number of backbone calls: 0
c Number of partitioner calls: 17
c Average number of assigned literal to obtain decomposable AND nodes: 6.17/74
c Minimum number of assigned variable where a decomposable AND appeared: 2
c 
c [33mGraph Information[0m
c Number of nodes: 1017
c Number of edges: 1340
c 
c [1m[34mCache Information[0m
c Memory used: 565 MB
c
c Number of positive hit: 252
c Number of negative hit: 231
c Number of reduceCall: 0
c
c Final time: 0.002429
c 
s 0.000000
D4 LOG: Elapsed time = 0.016 seconds
D4 OUTCOME: normal
mc2022_track2_047. D4 NNF LOG: size ./mc2022_track2_047.cnnf 972 lines 13630 bytes
mc2022_track2_047. D4 DRAT LOG: size ./mc2022_track2_047.drat 802 lines 15955 bytes
DTRIM LOG: Running /Users/bryant/repos/drat-trim/drat-trim ./mc2022_track2_047.cnf ./mc2022_track2_047.drat -f -U
DTRIM LOG: Time limit 1000 seconds

c parsing input formula with 74 variables and 384 clauses

c finished parsing

c start forward verification

c 384 of 384 clauses in core                            

c 80 of 419 lemmas in core using 475 resolution steps

c 0 RAT lemmas in core; 0 redundant literals in core lemmas

c optimized proofs are not supported for forward checking

c VERIFIED derivation: all lemmas preserve satisfiability

c WARNING: no empty clause detected, this is not a refutation

s DERIVATION

c verification time: 0.026 seconds
DTRIM LOG: Elapsed time = 0.029 seconds
DTRIM OUTCOME: normal
CHECK LOG: Running /Users/bryant/repos/d4/certificator ./mc2022_track2_047.cnf ./mc2022_track2_047.cnnf ./mc2022_track2_047.drat
CHECK LOG: Time limit 1000 seconds
c CNF information
c Number of variables: 74
c Number of clauses: 384
c
c DRAT information
c Number of drat clauses: 418
c
c DDnnf parsing: 0.000
c DDnnf checked: 0.003
c
c Global time: 0.003
CHECK LOG: Elapsed time = 0.006 seconds
CHECK OUTCOME: normal
OVERALL LOG: Elapsed time = 0.051 seconds
OVERALL OUTCOME: normal
